Pd                                      
   1.00000000000000     
    12.3355999999999995    0.0000000000000000    0.0000000000000000
     0.0000000000000000   10.8230000000000004    0.0000000000000000
     0.0000000000000000    0.0000000000000000   25.7937000000000012
   Pd   O    C    H    Au
    63    64     2     5     1
Selective dynamics
Direct
  0.1250000000000000  0.2500000000000000  0.0597800000000035   F   F   F
  0.1250000000000000  0.2500000000000000  0.1793400000000034   F   F   F
  0.1218291141112670  0.2494508538185552  0.2942941012284510   T   T   T
  0.1188177236039836  0.2478968787555094  0.4047112927940404   T   T   T
  0.0000000000000000  0.0000000000000000  0.0000000000000000   F   F   F
  0.0000000000000000  0.0000000000000000  0.1195599999999999   F   F   F
  0.9983921099107704  0.9997400222222751  0.2382528556426108   T   T   T
  0.9956305619260413  0.9987696599886002  0.3570774793122306   T   T   T
  0.3750000000000000  0.2500000000000000  0.0597800000000035   F   F   F
  0.3750000000000000  0.2500000000000000  0.1793400000000034   F   F   F
  0.3717724143676914  0.2492097796513914  0.2937951657497914   T   T   T
  0.2500000000000000  0.0000000000000000  0.0000000000000000   F   F   F
  0.2500000000000000  0.0000000000000000  0.1195599999999999   F   F   F
  0.2485437479618793  0.9998356175631360  0.2383570250822757   T   T   T
  0.2448029629710061  0.9987746147767864  0.3572402633776457   T   T   T
  0.6250000000000000  0.2500000000000000  0.0597800000000035   F   F   F
  0.6250000000000000  0.2500000000000000  0.1793400000000034   F   F   F
  0.6227027480474663  0.2488010628866144  0.2952075521054387   T   T   T
  0.6181264187783532  0.2565707736159804  0.4045861308780779   T   T   T
  0.5000000000000000  0.0000000000000000  0.0000000000000000   F   F   F
  0.5000000000000000  0.0000000000000000  0.1195599999999999   F   F   F
  0.4990062530743731  0.9998250778276263  0.2379955503580947   T   T   T
  0.4957819572022386  0.9992744599183789  0.3557351580552393   T   T   T
  0.8750000000000000  0.2500000000000000  0.0597800000000035   F   F   F
  0.8750000000000000  0.2500000000000000  0.1793400000000034   F   F   F
  0.8724971126369018  0.2493549466290556  0.2944940005427182   T   T   T
  0.8697683251935436  0.2486956399108764  0.4046008787309546   T   T   T
  0.7500000000000000  0.0000000000000000  0.0000000000000000   F   F   F
  0.7500000000000000  0.0000000000000000  0.1195599999999999   F   F   F
  0.7482361109601090  0.0001276072030941  0.2384998988057184   T   T   T
  0.7450773623110623  0.9998480814498346  0.3576767433454635   T   T   T
  0.1250000000000000  0.7500000000000000  0.0597800000000035   F   F   F
  0.1250000000000000  0.7500000000000000  0.1793400000000034   F   F   F
  0.1220457361356526  0.7495455005744939  0.2945334142339245   T   T   T
  0.1199534803702060  0.7483638145224895  0.4043784085656282   T   T   T
  0.0000000000000000  0.5000000000000000  0.0000000000000000   F   F   F
  0.0000000000000000  0.5000000000000000  0.1195599999999999   F   F   F
  0.9983858331304277  0.4998354372219115  0.2382740453229953   T   T   T
  0.9954814458154465  0.4990826496847867  0.3572850321109166   T   T   T
  0.3750000000000000  0.7500000000000000  0.0597800000000035   F   F   F
  0.3750000000000000  0.7500000000000000  0.1793400000000034   F   F   F
  0.3723639883390464  0.7488646050908362  0.2941570039603978   T   T   T
  0.3704832847575047  0.7445842420637726  0.4043626661351692   T   T   T
  0.2500000000000000  0.5000000000000000  0.0000000000000000   F   F   F
  0.2500000000000000  0.5000000000000000  0.1195599999999999   F   F   F
  0.2482454806778256  0.4997690805647559  0.2381157020500912   T   T   T
  0.2434581262079829  0.4998130180193113  0.3567613461882439   T   T   T
  0.6250000000000000  0.7500000000000000  0.0597800000000035   F   F   F
  0.6250000000000000  0.7500000000000000  0.1793400000000034   F   F   F
  0.6219993733973250  0.7492221627217298  0.2941929287405914   T   T   T
  0.6190246065490030  0.7449362672375210  0.4044920821741509   T   T   T
  0.5000000000000000  0.5000000000000000  0.0000000000000000   F   F   F
  0.5000000000000000  0.5000000000000000  0.1195599999999999   F   F   F
  0.4988968530500412  0.4996816563192676  0.2386411535703206   T   T   T
  0.4957971812965527  0.4843151377077101  0.3626516766656021   T   T   T
  0.8750000000000000  0.7500000000000000  0.0597800000000035   F   F   F
  0.8750000000000000  0.7500000000000000  0.1793400000000034   F   F   F
  0.8719014952843048  0.7497598470661401  0.2945587232797970   T   T   T
  0.8693795247247189  0.7489633215394423  0.4044107815237623   T   T   T
  0.7500000000000000  0.5000000000000000  0.0000000000000000   F   F   F
  0.7500000000000000  0.5000000000000000  0.1195599999999999   F   F   F
  0.7482180411056470  0.4994921157369405  0.2382472878494988   T   T   T
  0.7479382087206625  0.4997726005764379  0.3569051136283981   T   T   T
  0.0000000000000000  0.1250000000000000  0.0597800000000035   F   F   F
  0.0000000000000000  0.1250000000000000  0.1793400000000034   F   F   F
  0.9970721959852690  0.1249521244714802  0.2961104143855672   T   T   T
  0.9942824318851093  0.1284145768907236  0.4109548604194041   T   T   T
  0.0000000000000000  0.3750000000000000  0.0597800000000035   F   F   F
  0.0000000000000000  0.3750000000000000  0.1793400000000034   F   F   F
  0.9970363937932136  0.3737934086865711  0.2959404173770593   T   T   T
  0.9946210982841565  0.3675232365200070  0.4106816043618282   T   T   T
  0.2500000000000000  0.1250000000000000  0.0597800000000035   F   F   F
  0.2500000000000000  0.1250000000000000  0.1793400000000034   F   F   F
  0.2465876847714795  0.1254221479652448  0.2962416465473208   T   T   T
  0.2397387411685692  0.1254935102974818  0.4122954660708593   T   T   T
  0.2500000000000000  0.3750000000000000  0.0597800000000035   F   F   F
  0.2500000000000000  0.3750000000000000  0.1793400000000034   F   F   F
  0.2463545162607650  0.3738008061067241  0.2956674712089478   T   T   T
  0.2429355471069907  0.3714168592793404  0.4114525753504804   T   T   T
  0.5000000000000000  0.1250000000000000  0.0597800000000035   F   F   F
  0.5000000000000000  0.1250000000000000  0.1793400000000034   F   F   F
  0.4973208191800885  0.1254992422759966  0.2958305802068415   T   T   T
  0.4955143219707925  0.1364567613339570  0.4077155543879838   T   T   T
  0.5000000000000000  0.3750000000000000  0.0597800000000035   F   F   F
  0.5000000000000000  0.3750000000000000  0.1793400000000034   F   F   F
  0.4978359910598334  0.3717585495027615  0.2967601915793202   T   T   T
  0.7500000000000000  0.1250000000000000  0.0597800000000035   F   F   F
  0.7500000000000000  0.1250000000000000  0.1793400000000034   F   F   F
  0.7475227904161380  0.1255711933047969  0.2967698190481560   T   T   T
  0.7460797123437735  0.1287378052765275  0.4122563749311488   T   T   T
  0.7500000000000000  0.3750000000000000  0.0597800000000035   F   F   F
  0.7500000000000000  0.3750000000000000  0.1793400000000034   F   F   F
  0.7475066276345295  0.3733571711316271  0.2962018241037322   T   T   T
  0.7476155286984139  0.3714496528062002  0.4108055433258977   T   T   T
  0.0000000000000000  0.6250000000000000  0.0597800000000035   F   F   F
  0.0000000000000000  0.6250000000000000  0.1793400000000034   F   F   F
  0.9967888542710457  0.6254353540552519  0.2961116009881463   T   T   T
  0.9945236788090691  0.6295898487759656  0.4110009043672394   T   T   T
  0.0000000000000000  0.8750000000000000  0.0597800000000035   F   F   F
  0.0000000000000000  0.8750000000000000  0.1793400000000034   F   F   F
  0.9970203783863629  0.8736235054138582  0.2959451141077057   T   T   T
  0.9948429713814392  0.8678595564830162  0.4104076888413172   T   T   T
  0.2500000000000000  0.6250000000000000  0.0597800000000035   F   F   F
  0.2500000000000000  0.6250000000000000  0.1793400000000034   F   F   F
  0.2468669666290157  0.6251174147612572  0.2959288115614579   T   T   T
  0.2439631861161826  0.6279650265948844  0.4112253407104962   T   T   T
  0.2500000000000000  0.8750000000000000  0.0597800000000035   F   F   F
  0.2500000000000000  0.8750000000000000  0.1793400000000034   F   F   F
  0.2472374582611020  0.8736349759982752  0.2961030559552745   T   T   T
  0.2465471771801190  0.8664040347806418  0.4102302746362035   T   T   T
  0.5000000000000000  0.6250000000000000  0.0597800000000035   F   F   F
  0.5000000000000000  0.6250000000000000  0.1793400000000034   F   F   F
  0.4974897162919070  0.6267919238079689  0.2952104442608940   T   T   T
  0.4949430754924338  0.6217577794946273  0.4139447654876892   T   T   T
  0.5000000000000000  0.8750000000000000  0.0597800000000035   F   F   F
  0.5000000000000000  0.8750000000000000  0.1793400000000034   F   F   F
  0.4970982859052904  0.8732262849563929  0.2957577396722117   T   T   T
  0.4946424207019207  0.8660715543635858  0.4093018234996262   T   T   T
  0.7500000000000000  0.6250000000000000  0.0597800000000035   F   F   F
  0.7500000000000000  0.6250000000000000  0.1793400000000034   F   F   F
  0.7470876410067744  0.6253755102504392  0.2959447625944692   T   T   T
  0.7456648421381885  0.6285232896519044  0.4112612922956462   T   T   T
  0.7500000000000000  0.8750000000000000  0.0597800000000035   F   F   F
  0.7500000000000000  0.8750000000000000  0.1793400000000034   F   F   F
  0.7469798024715644  0.8742484776692681  0.2964311136552434   T   T   T
  0.7426490956351791  0.8672445653695896  0.4105909637897784   T   T   T
  0.4228339014022715  0.2843979406932716  0.5086529654147338   T   T   T
  0.5220533099157274  0.2160319739781650  0.5127082750088457   T   T   T
  0.6121945543712115  0.2797225605992419  0.4848884794743143   T   T   T
  0.5465656430517901  0.2109517940334737  0.5540449102326950   T   T   T
  0.5111648643298066  0.1207857908176815  0.4987515292572069   T   T   T
  0.3641177786138315  0.2328379723262054  0.5217866941985249   T   T   T
  0.6100445613072127  0.3806474993319326  0.4879602637561274   T   T   T
  0.6914090234678221  0.2413427955383651  0.4953031991545883   T   T   T
  0.3741753692165756  0.2593485299028380  0.4040350502643067   T   T   T
 
  0.00000000E+00  0.00000000E+00  0.00000000E+00
  0.00000000E+00  0.00000000E+00  0.00000000E+00
  0.00000000E+00  0.00000000E+00  0.00000000E+00
  0.00000000E+00  0.00000000E+00  0.00000000E+00
  0.00000000E+00  0.00000000E+00  0.00000000E+00
  0.00000000E+00  0.00000000E+00  0.00000000E+00
  0.00000000E+00  0.00000000E+00  0.00000000E+00
  0.00000000E+00  0.00000000E+00  0.00000000E+00
  0.00000000E+00  0.00000000E+00  0.00000000E+00
  0.00000000E+00  0.00000000E+00  0.00000000E+00
  0.00000000E+00  0.00000000E+00  0.00000000E+00
  0.00000000E+00  0.00000000E+00  0.00000000E+00
  0.00000000E+00  0.00000000E+00  0.00000000E+00
  0.00000000E+00  0.00000000E+00  0.00000000E+00
  0.00000000E+00  0.00000000E+00  0.00000000E+00
  0.00000000E+00  0.00000000E+00  0.00000000E+00
  0.00000000E+00  0.00000000E+00  0.00000000E+00
  0.00000000E+00  0.00000000E+00  0.00000000E+00
  0.00000000E+00  0.00000000E+00  0.00000000E+00
  0.00000000E+00  0.00000000E+00  0.00000000E+00
  0.00000000E+00  0.00000000E+00  0.00000000E+00
  0.00000000E+00  0.00000000E+00  0.00000000E+00
  0.00000000E+00  0.00000000E+00  0.00000000E+00
  0.00000000E+00  0.00000000E+00  0.00000000E+00
  0.00000000E+00  0.00000000E+00  0.00000000E+00
  0.00000000E+00  0.00000000E+00  0.00000000E+00
  0.00000000E+00  0.00000000E+00  0.00000000E+00
  0.00000000E+00  0.00000000E+00  0.00000000E+00
  0.00000000E+00  0.00000000E+00  0.00000000E+00
  0.00000000E+00  0.00000000E+00  0.00000000E+00
  0.00000000E+00  0.00000000E+00  0.00000000E+00
  0.00000000E+00  0.00000000E+00  0.00000000E+00
  0.00000000E+00  0.00000000E+00  0.00000000E+00
  0.00000000E+00  0.00000000E+00  0.00000000E+00
  0.00000000E+00  0.00000000E+00  0.00000000E+00
  0.00000000E+00  0.00000000E+00  0.00000000E+00
  0.00000000E+00  0.00000000E+00  0.00000000E+00
  0.00000000E+00  0.00000000E+00  0.00000000E+00
  0.00000000E+00  0.00000000E+00  0.00000000E+00
  0.00000000E+00  0.00000000E+00  0.00000000E+00
  0.00000000E+00  0.00000000E+00  0.00000000E+00
  0.00000000E+00  0.00000000E+00  0.00000000E+00
  0.00000000E+00  0.00000000E+00  0.00000000E+00
  0.00000000E+00  0.00000000E+00  0.00000000E+00
  0.00000000E+00  0.00000000E+00  0.00000000E+00
  0.00000000E+00  0.00000000E+00  0.00000000E+00
  0.00000000E+00  0.00000000E+00  0.00000000E+00
  0.00000000E+00  0.00000000E+00  0.00000000E+00
  0.00000000E+00  0.00000000E+00  0.00000000E+00
  0.00000000E+00  0.00000000E+00  0.00000000E+00
  0.00000000E+00  0.00000000E+00  0.00000000E+00
  0.00000000E+00  0.00000000E+00  0.00000000E+00
  0.00000000E+00  0.00000000E+00  0.00000000E+00
  0.00000000E+00  0.00000000E+00  0.00000000E+00
  0.00000000E+00  0.00000000E+00  0.00000000E+00
  0.00000000E+00  0.00000000E+00  0.00000000E+00
  0.00000000E+00  0.00000000E+00  0.00000000E+00
  0.00000000E+00  0.00000000E+00  0.00000000E+00
  0.00000000E+00  0.00000000E+00  0.00000000E+00
  0.00000000E+00  0.00000000E+00  0.00000000E+00
  0.00000000E+00  0.00000000E+00  0.00000000E+00
  0.00000000E+00  0.00000000E+00  0.00000000E+00
  0.00000000E+00  0.00000000E+00  0.00000000E+00
  0.00000000E+00  0.00000000E+00  0.00000000E+00
  0.00000000E+00  0.00000000E+00  0.00000000E+00
  0.00000000E+00  0.00000000E+00  0.00000000E+00
  0.00000000E+00  0.00000000E+00  0.00000000E+00
  0.00000000E+00  0.00000000E+00  0.00000000E+00
  0.00000000E+00  0.00000000E+00  0.00000000E+00
  0.00000000E+00  0.00000000E+00  0.00000000E+00
  0.00000000E+00  0.00000000E+00  0.00000000E+00
  0.00000000E+00  0.00000000E+00  0.00000000E+00
  0.00000000E+00  0.00000000E+00  0.00000000E+00
  0.00000000E+00  0.00000000E+00  0.00000000E+00
  0.00000000E+00  0.00000000E+00  0.00000000E+00
  0.00000000E+00  0.00000000E+00  0.00000000E+00
  0.00000000E+00  0.00000000E+00  0.00000000E+00
  0.00000000E+00  0.00000000E+00  0.00000000E+00
  0.00000000E+00  0.00000000E+00  0.00000000E+00
  0.00000000E+00  0.00000000E+00  0.00000000E+00
  0.00000000E+00  0.00000000E+00  0.00000000E+00
  0.00000000E+00  0.00000000E+00  0.00000000E+00
  0.00000000E+00  0.00000000E+00  0.00000000E+00
  0.00000000E+00  0.00000000E+00  0.00000000E+00
  0.00000000E+00  0.00000000E+00  0.00000000E+00
  0.00000000E+00  0.00000000E+00  0.00000000E+00
  0.00000000E+00  0.00000000E+00  0.00000000E+00
  0.00000000E+00  0.00000000E+00  0.00000000E+00
  0.00000000E+00  0.00000000E+00  0.00000000E+00
  0.00000000E+00  0.00000000E+00  0.00000000E+00
  0.00000000E+00  0.00000000E+00  0.00000000E+00
  0.00000000E+00  0.00000000E+00  0.00000000E+00
  0.00000000E+00  0.00000000E+00  0.00000000E+00
  0.00000000E+00  0.00000000E+00  0.00000000E+00
  0.00000000E+00  0.00000000E+00  0.00000000E+00
  0.00000000E+00  0.00000000E+00  0.00000000E+00
  0.00000000E+00  0.00000000E+00  0.00000000E+00
  0.00000000E+00  0.00000000E+00  0.00000000E+00
  0.00000000E+00  0.00000000E+00  0.00000000E+00
  0.00000000E+00  0.00000000E+00  0.00000000E+00
  0.00000000E+00  0.00000000E+00  0.00000000E+00
  0.00000000E+00  0.00000000E+00  0.00000000E+00
  0.00000000E+00  0.00000000E+00  0.00000000E+00
  0.00000000E+00  0.00000000E+00  0.00000000E+00
  0.00000000E+00  0.00000000E+00  0.00000000E+00
  0.00000000E+00  0.00000000E+00  0.00000000E+00
  0.00000000E+00  0.00000000E+00  0.00000000E+00
  0.00000000E+00  0.00000000E+00  0.00000000E+00
  0.00000000E+00  0.00000000E+00  0.00000000E+00
  0.00000000E+00  0.00000000E+00  0.00000000E+00
  0.00000000E+00  0.00000000E+00  0.00000000E+00
  0.00000000E+00  0.00000000E+00  0.00000000E+00
  0.00000000E+00  0.00000000E+00  0.00000000E+00
  0.00000000E+00  0.00000000E+00  0.00000000E+00
  0.00000000E+00  0.00000000E+00  0.00000000E+00
  0.00000000E+00  0.00000000E+00  0.00000000E+00
  0.00000000E+00  0.00000000E+00  0.00000000E+00
  0.00000000E+00  0.00000000E+00  0.00000000E+00
  0.00000000E+00  0.00000000E+00  0.00000000E+00
  0.00000000E+00  0.00000000E+00  0.00000000E+00
  0.00000000E+00  0.00000000E+00  0.00000000E+00
  0.00000000E+00  0.00000000E+00  0.00000000E+00
  0.00000000E+00  0.00000000E+00  0.00000000E+00
  0.00000000E+00  0.00000000E+00  0.00000000E+00
  0.00000000E+00  0.00000000E+00  0.00000000E+00
  0.00000000E+00  0.00000000E+00  0.00000000E+00
  0.00000000E+00  0.00000000E+00  0.00000000E+00
  0.00000000E+00  0.00000000E+00  0.00000000E+00
  0.00000000E+00  0.00000000E+00  0.00000000E+00
  0.00000000E+00  0.00000000E+00  0.00000000E+00
  0.00000000E+00  0.00000000E+00  0.00000000E+00
  0.00000000E+00  0.00000000E+00  0.00000000E+00
  0.00000000E+00  0.00000000E+00  0.00000000E+00
  0.00000000E+00  0.00000000E+00  0.00000000E+00
  0.00000000E+00  0.00000000E+00  0.00000000E+00
